JulietBench/Juliet_Based_Patch_Bench/linux/CWE-190-Integer-Overflow-or-Wraparound/CVE_2018_6927_fbe0e839d1e22d88810f3ee3e2f1479be4c0aa4a/Resultfutex_requeue_SnippetEQ.smt2
; benchmark generated from python API
(set-info :status unknown)
(declare-fun R () (_ BitVec 32))
(declare-fun rdi () (_ BitVec 64))
(declare-fun rsi () (_ BitVec 64))
(declare-fun rdx () (_ BitVec 64))
(assert
 (let (($x219 (= (_ bv4294967274 32) R)))
 (let ((?x6 ((_ extract 31 0) rdi)))
 (let ((?x49 ((_ zero_extend 32) ?x6)))
 (let ((?x11 (bvlshr ?x49 (_ bv31 64))))
 (let ((?x72 ((_ extract 0 0) ?x11)))
 (let ((?x74 (bvand ?x72 (_ bv1 1))))
 (let (($x75 (and (distinct (_ bv0 1) ?x74) true)))
 (let (($x229 (and $x75 $x219)))
 (let (($x96 (= (_ bv0 1) ?x74)))
 (let ((?x8 ((_ extract 31 0) rsi)))
 (let ((?x105 ((_ zero_extend 32) ?x8)))
 (let ((?x108 (bvlshr ?x105 (_ bv31 64))))
 (let ((?x109 ((_ extract 0 0) ?x108)))
 (let ((?x110 (bvand ?x109 (_ bv1 1))))
 (let (($x111 (and (distinct (_ bv0 1) ?x110) true)))
 (let (($x228 (and $x111 $x96 $x219)))
 (let (($x221 (= R ?x8)))
 (let (($x133 (= (_ bv0 1) ?x110)))
 (let ((?x10 ((_ extract 31 0) rdx)))
 (let (($x14 (= (_ bv0 32) ?x10)))
 (let (($x227 (and $x14 $x133 $x96 $x221)))
 (let (($x40 (and (distinct (_ bv0 32) ?x10) true)))
 (let (($x55 (= (_ bv1 32) ?x6)))
 (let (($x226 (and $x55 $x40 $x133 $x96 $x221)))
 (let (($x63 (and (distinct (_ bv1 32) ?x6) true)))
 (let (($x225 (and $x63 $x40 $x133 $x96 $x219)))
 (let (($x230 (or $x225 $x226 $x227 $x228 $x229)))
 (let (($x223 (and $x14 $x221)))
 (let (($x222 (and $x55 $x40 $x221)))
 (let (($x220 (and $x63 $x40 $x219)))
 (let (($x224 (or $x220 $x222 $x223)))
 (and $x224 $x230)))))))))))))))))))))))))))))))))
(check-sat)
